p cnf 16 168
1 2 3 0
-1 -2 -3 0
2 3 4 0
-2 -3 -4 0
5 6 7 0
-5 -6 -7 0
6 7 8 0
-6 -7 -8 0
9 10 11 0
-9 -10 -11 0
10 11 12 0
-10 -11 -12 0
13 14 15 0
-13 -14 -15 0
14 15 16 0
-14 -15 -16 0
1 5 9 0
-1 -5 -9 0
5 9 13 0
-5 -9 -13 0
2 6 10 0
-2 -6 -10 0
6 10 14 0
-6 -10 -14 0
3 7 11 0
-3 -7 -11 0
7 11 15 0
-7 -11 -15 0
4 8 12 0
-4 -8 -12 0
8 12 16 0
-8 -12 -16 0
1 2 3 0
-1 -2 -3 0
1 2 4 0
-1 -2 -4 0
1 3 4 0
-1 -3 -4 0
2 3 4 0
-2 -3 -4 0
5 6 7 0
-5 -6 -7 0
5 6 8 0
-5 -6 -8 0
5 7 8 0
-5 -7 -8 0
6 7 8 0
-6 -7 -8 0
9 10 11 0
-9 -10 -11 0
9 10 12 0
-9 -10 -12 0
9 11 12 0
-9 -11 -12 0
10 11 12 0
-10 -11 -12 0
13 14 15 0
-13 -14 -15 0
13 14 16 0
-13 -14 -16 0
13 15 16 0
-13 -15 -16 0
14 15 16 0
-14 -15 -16 0
1 5 9 0
-1 -5 -9 0
1 5 13 0
-1 -5 -13 0
1 9 13 0
-1 -9 -13 0
5 9 13 0
-5 -9 -13 0
2 6 10 0
-2 -6 -10 0
2 6 14 0
-2 -6 -14 0
2 10 14 0
-2 -10 -14 0
6 10 14 0
-6 -10 -14 0
3 7 11 0
-3 -7 -11 0
3 7 15 0
-3 -7 -15 0
3 11 15 0
-3 -11 -15 0
7 11 15 0
-7 -11 -15 0
4 8 12 0
-4 -8 -12 0
4 8 16 0
-4 -8 -16 0
4 12 16 0
-4 -12 -16 0
8 12 16 0
-8 -12 -16 0
-1 -5 -2 -6 0
-1 -5 -3 -7 0
-1 -5 -4 -8 0
-2 -6 -3 -7 0
-2 -6 -4 -8 0
-3 -7 -4 -8 0
-1 -9 -2 -10 0
-1 -9 -3 -11 0
-1 -9 -4 -12 0
-2 -10 -3 -11 0
-2 -10 -4 -12 0
-3 -11 -4 -12 0
-1 -13 -2 -14 0
-1 -13 -3 -15 0
-1 -13 -4 -16 0
-2 -14 -3 -15 0
-2 -14 -4 -16 0
-3 -15 -4 -16 0
-5 -9 -6 -10 0
-5 -9 -7 -11 0
-5 -9 -8 -12 0
-6 -10 -7 -11 0
-6 -10 -8 -12 0
-7 -11 -8 -12 0
-5 -13 -6 -14 0
-5 -13 -7 -15 0
-5 -13 -8 -16 0
-6 -14 -7 -15 0
-6 -14 -8 -16 0
-7 -15 -8 -16 0
-9 -13 -10 -14 0
-9 -13 -11 -15 0
-9 -13 -12 -16 0
-10 -14 -11 -15 0
-10 -14 -12 -16 0
-11 -15 -12 -16 0
-1 -2 -5 -6 0
-1 -2 -9 -10 0
-1 -2 -13 -14 0
-5 -6 -9 -10 0
-5 -6 -13 -14 0
-9 -10 -13 -14 0
-1 -3 -5 -7 0
-1 -3 -9 -11 0
-1 -3 -13 -15 0
-5 -7 -9 -11 0
-5 -7 -13 -15 0
-9 -11 -13 -15 0
-1 -4 -5 -8 0
-1 -4 -9 -12 0
-1 -4 -13 -16 0
-5 -8 -9 -12 0
-5 -8 -13 -16 0
-9 -12 -13 -16 0
-2 -3 -6 -7 0
-2 -3 -10 -11 0
-2 -3 -14 -15 0
-6 -7 -10 -11 0
-6 -7 -14 -15 0
-10 -11 -14 -15 0
-2 -4 -6 -8 0
-2 -4 -10 -12 0
-2 -4 -14 -16 0
-6 -8 -10 -12 0
-6 -8 -14 -16 0
-10 -12 -14 -16 0
-3 -4 -7 -8 0
-3 -4 -11 -12 0
-3 -4 -15 -16 0
-7 -8 -11 -12 0
-7 -8 -15 -16 0
-11 -12 -15 -16 0
